15
2 0 7
2 1 13
3 1 1
3 2 19
4 2 16
4 3 31
5 0 20
5 1 6
5 2 25
5 3 9
5 4 22
6 0 6
6 2 31
6 3 5
6 5 7
7 0 2
7 2 24
7 5 29
8 3 17
8 5 11
9 0 9
9 1 12
9 3 12
9 4 23
9 7 17
9 8 12
10 0 14
10 4 27
10 7 19
10 8 28
10 9 29
11 0 31
11 1 21
11 2 1
11 4 24
11 6 27
11 8 1
12 0 9
12 2 21
12 5 20
12 8 19
12 11 5
13 2 16
13 5 5
13 6 15
13 7 32
13 8 2
13 9 28
14 0 24
14 1 4
14 3 6
14 6 28
14 7 24
14 11 15
